p cnf 50 15
x -1 3 -5 -7 9 10 11 13 15 16 -17 -18 -21 -23 -24 27 29 30 31 -33 35 -42 -44 -45 47 49 -50 0
x -1 -3 4 -7 -12 15 -17 18 -21 22 23 25 26 -27 28 30 31 -32 34 -35 -40 -41 42 -43 -44 -46 -47 -48 0
x -4 5 -6 7 9 -11 -14 15 -17 18 -21 -22 23 -24 -25 -27 -28 33 37 38 -40 -42 -43 44 45 -46 -47 48 -50 0
x 2 4 5 9 11 12 13 -16 -19 20 -23 27 -28 29 -30 34 -37 40 -41 47 0
x -2 4 -7 10 -11 -12 -15 -16 20 21 23 -25 26 -27 -28 29 30 -31 33 -34 37 38 -39 -43 -44 -46 -49 0
x 2 -3 -4 -5 10 -11 13 14 -16 17 18 -19 21 -23 -24 25 -26 -28 -32 -34 35 38 39 -43 -45 -46 -49 50 0
x 1 2 -6 7 -10 -11 12 -13 14 15 -16 -17 -18 -19 20 21 -22 24 -25 29 -30 -31 37 -38 -39 -41 42 -44 -45 46 -49 50 0
x -1 -4 -5 -7 -9 11 -12 16 17 20 23 -24 29 -31 -32 33 -34 35 36 -37 -39 40 41 -49 50 0
x 3 4 5 -7 9 11 12 -13 14 18 -19 20 -21 -22 23 -26 27 -28 29 -30 -34 35 -36 37 40 41 43 -44 -45 46 -47 48 50 0
x 1 3 5 -6 9 13 16 17 19 -22 23 -26 -30 32 -33 -35 -36 37 -38 -40 -44 -45 -46 -47 49 -50 0
x 3 -5 -6 7 -9 -10 -12 16 -17 18 -22 24 -25 -29 34 -36 -45 46 -49 0
x 4 7 -8 -10 12 14 -15 19 -20 -21 23 25 27 -28 -32 -33 42 44 -45 0
x -6 8 9 12 -13 -14 -17 -19 21 28 32 33 34 -39 -49 0
x 1 2 5 -7 8 11 -14 18 19 -22 -25 -32 -33 34 36 38 -42 -43 -48 49 50 0
x 1 -4 14 17 -24 26 30 -31 -35 37 39 -40 41 43 47 48 -49 0
g -10